NAME: S051D6_20
COMMENT: 2360.93
VEHICLE: 41
TIME: 313.133
DIMENSION: 51
CAPACITY: 160
DELIVERY_SECTION
0 0 0
1 1 32
2 1 32
3 1 32
4 1 16
5 1 1.6
6 1 1.6
7 1 1.6
8 1 1.2
9 2 32
10 2 32
11 2 32
12 2 16
13 2 1.6
14 2 1.6
15 2 1.6
16 2 1.2
17 3 32
18 3 32
19 3 32
20 3 16
21 3 1.6
22 3 0.4
23 4 32
24 4 32
25 4 32
26 4 32
27 4 8
28 4 1.6
29 4 1.6
30 4 1.6
31 4 1.6
32 4 0.6
33 5 32
34 5 32
35 5 32
36 5 16
37 5 1.6
38 5 1.6
39 5 0.8
40 6 32
41 6 32
42 6 32
43 6 32
44 6 1.6
45 6 0.4
46 7 32
47 7 32
48 7 32
49 7 16
50 7 1.6
51 7 0.4
52 8 32
53 8 32
54 8 32
55 8 32
56 8 8
57 8 1.6
58 8 1.6
59 8 0.8
60 9 32
61 9 32
62 9 32
63 9 16
64 9 1
65 10 32
66 10 32
67 10 32
68 10 32
69 10 8
70 10 1.6
71 10 0.4
72 11 32
73 11 32
74 11 32
75 11 16
76 11 1.6
77 11 1.4
78 12 32
79 12 32
80 12 32
81 12 32
82 12 1.6
83 12 1.4
84 13 32
85 13 32
86 13 32
87 13 16
88 13 1.6
89 13 0.4
90 14 32
91 14 32
92 14 32
93 14 32
94 14 8
95 14 1.6
96 14 1.6
97 14 1.6
98 14 1.2
99 15 32
100 15 32
101 15 32
102 15 16
103 15 1.6
104 15 1.6
105 15 0.8
106 16 32
107 16 32
108 16 32
109 16 16
110 16 1.6
111 16 1.6
112 16 1.6
113 16 1.2
114 17 32
115 17 32
116 17 32
117 17 16
118 17 1.6
119 17 1.6
120 17 1.6
121 17 1.6
122 17 0.6
123 18 32
124 18 32
125 18 32
126 18 32
127 18 8
128 18 1.6
129 18 1.6
130 18 1.6
131 18 1.6
132 18 0.6
133 19 32
134 19 32
135 19 32
136 19 16
137 19 1.6
138 19 1.6
139 19 1.6
140 19 1.2
141 20 32
142 20 32
143 20 32
144 20 16
145 20 1.6
146 20 1.6
147 20 1.6
148 20 1.6
149 20 0.6
150 21 32
151 21 32
152 21 32
153 21 16
154 21 8
155 21 1.6
156 21 1.6
157 21 1.6
158 21 0.2
159 22 32
160 22 32
161 22 32
162 22 32
163 22 8
164 22 1.6
165 22 1.6
166 22 1.6
167 22 1.2
168 23 32
169 23 32
170 23 32
171 23 16
172 23 8
173 24 32
174 24 32
175 24 32
176 24 32
177 24 1.6
178 24 1.4
179 25 32
180 25 32
181 25 32
182 25 32
183 25 1.6
184 25 1.4
185 26 32
186 26 32
187 26 32
188 26 32
189 26 8
190 26 1.6
191 26 1.4
192 27 32
193 27 32
194 27 32
195 27 16
196 27 8
197 27 1.6
198 27 0.4
199 28 32
200 28 32
201 28 32
202 28 32
203 28 8
204 28 1.6
205 28 1.4
206 29 32
207 29 32
208 29 32
209 29 32
210 29 8
211 29 1
212 30 32
213 30 32
214 30 32
215 30 32
216 30 1.6
217 30 1.6
218 30 1.6
219 30 1.6
220 30 0.6
221 31 32
222 31 32
223 31 32
224 31 16
225 31 8
226 31 1.6
227 31 1.6
228 31 1.6
229 31 0.2
230 32 32
231 32 32
232 32 32
233 32 32
234 32 8
235 32 1.6
236 32 1.6
237 32 1.6
238 32 1.6
239 32 0.6
240 33 32
241 33 32
242 33 32
243 33 32
244 33 8
245 33 1.6
246 33 1.6
247 33 1.6
248 33 1.2
249 34 32
250 34 32
251 34 32
252 34 32
253 34 1.6
254 34 1.4
255 35 32
256 35 32
257 35 32
258 35 32
259 35 1
260 36 32
261 36 32
262 36 32
263 36 32
264 36 8
265 36 1.6
266 36 1.6
267 36 1.6
268 36 1.6
269 36 0.6
270 37 32
271 37 32
272 37 32
273 37 32
274 37 8
275 37 1.6
276 37 1.6
277 37 1.6
278 37 1.6
279 37 0.6
280 38 32
281 38 32
282 38 32
283 38 16
284 38 8
285 38 1.6
286 38 1.6
287 38 1.6
288 38 1.6
289 38 0.6
290 39 32
291 39 32
292 39 32
293 39 32
294 39 1.6
295 39 1.6
296 39 1.6
297 39 0.2
298 40 32
299 40 32
300 40 32
301 40 32
302 40 8
303 40 1.6
304 40 1.4
305 41 32
306 41 32
307 41 32
308 41 32
309 41 8
310 41 1.6
311 41 1.6
312 41 1.6
313 41 1.2
314 42 32
315 42 32
316 42 32
317 42 16
318 42 8
319 42 1.6
320 42 1.4
321 43 32
322 43 32
323 43 32
324 43 32
325 43 8
326 43 1
327 44 32
328 44 32
329 44 32
330 44 32
331 44 1.6
332 44 1.6
333 44 1.6
334 44 1.2
335 45 32
336 45 32
337 45 32
338 45 32
339 45 8
340 46 32
341 46 32
342 46 32
343 46 16
344 46 8
345 46 1
346 47 32
347 47 32
348 47 32
349 47 32
350 47 8
351 47 1.6
352 47 1.6
353 47 0.8
354 48 32
355 48 32
356 48 32
357 48 32
358 49 32
359 49 32
360 49 32
361 49 16
362 49 8
363 49 1.6
364 49 1.6
365 49 1.6
366 49 0.2
367 50 32
368 50 32
369 50 32
370 50 16
371 50 1.6
372 50 1.6
373 50 1.6
374 50 1.2
PICKUP_SECTION
NODE_SECTION
30 40

37 52

49 49

52 64

20 26

40 30

21 47

17 63

31 62

52 33

51 21

42 41

31 32

 5 25

12 42

36 16

52 41

27 23

17 33

13 13

57 58

62 42

42 57

16 57
 
8 52

 7 38

27 68

30 48

43 67

58 48

58 27

37 69

38 46

46 10

61 33

62 63

63 69

32 22

45 35

59 15

 5  6

10 17

21 10

 5 64

30 15

39 10

32 39

25 32

25 55

48 28

56 37
DISTANCE_SECTION
DEPOT_SECTION
0
EOF